1.000000 0.250000 1.000000
5
5 2 3 4 5 6 
5 7 8 9 10 11 
5 12 13 14 15 16 
5 17 18 19 20 21 
5 22 23 24 25 26 
1 1 
1 2 
1 2 
1 2 
1 2 
1 2 
1 2 
1 2 
1 2 
1 2 
1 2 
1 2 
1 2 
1 3 
1 3 
1 3 
1 3 
1 3 
1 3 
1 3 
1 3 
1 3 
1 3 
1 3 
1 3 
1 4 
1 4 
1 4 
1 4 
1 4 
1 4 
1 4 
1 4 
1 4 
1 4 
1 4 
1 4 
1 5 
1 5 
1 5 
1 5 
1 5 
1 5 
1 5 
1 5 
1 5 
1 5 
1 5 
1 5 
1 6 
1 6 
1 6 
1 6 
1 6 
1 6 
1 6 
1 6 
1 6 
1 6 
1 6 
1 6 
1 1 
1 7 
1 7 
1 7 
2 7 2 
2 7 2 
1 7 
2 7 2 
2 7 2 
2 7 2 
2 7 2 
2 7 2 
2 7 2 
1 8 
1 8 
1 8 
1 8 
1 8 
1 8 
1 8 
1 8 
1 8 
2 8 5 
1 8 
2 8 5 
1 9 
1 9 
1 9 
1 9 
1 9 
1 9 
1 9 
1 9 
1 9 
1 9 
1 9 
1 9 
1 10 
1 10 
1 10 
1 10 
1 10 
1 10 
1 10 
1 10 
1 10 
1 10 
1 10 
1 10 
1 11 
1 11 
1 11 
1 11 
1 11 
1 11 
1 11 
1 11 
1 11 
1 11 
1 11 
1 11 
1 1 
1 12 
1 12 
1 12 
1 12 
1 12 
1 12 
1 12 
1 12 
1 12 
1 12 
1 12 
1 12 
1 13 
1 13 
1 13 
1 13 
1 13 
1 13 
1 13 
1 13 
1 13 
1 13 
1 13 
1 13 
1 14 
1 14 
1 14 
1 14 
1 14 
1 14 
1 14 
1 14 
2 14 9 
1 14 
1 14 
2 14 9 
1 15 
1 15 
1 15 
1 15 
1 15 
1 15 
1 15 
1 15 
1 15 
1 15 
1 15 
1 15 
1 16 
1 16 
1 16 
1 16 
2 16 11 
1 16 
2 16 11 
3 16 4 11 
3 16 4 11 
2 16 11 
3 16 4 11 
3 16 4 11 
1 1 
1 17 
1 17 
1 17 
1 17 
1 17 
1 17 
1 17 
1 17 
1 17 
1 17 
1 17 
1 17 
1 17 
1 17 
1 17 
1 17 
1 17 
1 17 
2 17 6 
1 17 
2 17 6 
2 17 6 
1 18 
1 18 
1 18 
1 18 
1 18 
1 18 
1 18 
1 18 
1 18 
1 18 
1 18 
1 18 
1 18 
1 18 
1 18 
2 18 17 
2 18 17 
2 18 17 
2 18 17 
2 18 17 
2 18 17 
2 18 17 
1 19 
2 19 13 
2 19 13 
2 19 13 
2 19 13 
2 19 13 
2 19 13 
2 19 13 
2 19 13 
2 19 13 
2 19 13 
2 19 13 
2 19 13 
2 19 13 
2 19 13 
2 19 13 
2 19 13 
2 19 13 
2 19 13 
2 19 13 
2 19 13 
2 19 13 
1 20 
1 20 
1 20 
1 20 
1 20 
1 20 
1 20 
1 20 
1 20 
1 20 
1 20 
1 20 
1 21 
1 21 
1 21 
1 21 
1 21 
1 21 
1 21 
1 21 
3 21 3 18 
3 21 3 18 
3 21 3 18 
3 21 3 18 
3 21 3 18 
3 21 3 18 
3 21 3 18 
3 21 3 18 
3 21 3 18 
1 21 
1 21 
2 21 12 
5 21 14 16 4 11 
8 21 3 12 14 16 4 11 18 
1 22 
1 22 
1 22 
1 22 
1 22 
1 22 
1 22 
1 22 
1 22 
1 22 
1 22 
1 22 
1 23 
1 23 
1 23 
1 23 
1 23 
1 23 
1 23 
1 23 
1 23 
2 23 10 
1 23 
2 23 10 
1 24 
4 24 7 22 23 
4 24 7 22 23 
4 24 7 22 23 
4 24 7 22 23 
4 24 7 22 23 
4 24 7 22 23 
4 24 7 22 23 
4 24 7 22 23 
4 24 7 22 23 
4 24 7 22 23 
4 24 7 22 23 
1 25 
1 25 
1 25 
1 25 
2 25 15 
2 25 15 
2 25 15 
3 25 15 19 
3 25 15 19 
2 25 15 
3 25 15 19 
3 25 15 19 
1 26 
1 26 
2 26 8 
2 26 21 
2 26 21 
5 26 8 25 15 19 
5 26 8 25 15 19 
7 26 8 20 21 25 15 19 
11 26 8 20 21 24 7 22 23 25 15 19 
11 26 8 20 21 24 7 22 23 25 15 19 
3 26 8 21 
11 26 8 20 21 24 7 22 23 25 15 19 
1 1 
